words_train/words_402_SAT.qaiger
aag 49 16 0 1 33
26
28
18
30
32
16
22
2
6
20
4
12
10
24
14
8
99
34 16 14
36 34 12
38 6 4
40 38 10
42 40 36
44 42 8
46 45 2
48 6 3
50 17 15
52 51 35
54 31 29
56 54 27
58 56 53
60 35 13
62 61 37
64 63 58
66 65 49
68 66 47
70 59 42
72 11 5
74 72 7
76 74 9
78 76 37
80 79 3
82 80 71
84 60 2
86 84 74
88 86 58
90 89 49
92 91 9
94 93 83
96 94 69
98 97 33
i0 2 y[4]
i1 2 y[5]
i2 2 y[0]
i3 2 y[6]
i4 2 y[7]
i5 1 x[7]
i6 2 y[2]
i7 1 x[0]
i8 1 x[2]
i9 2 y[1]
i10 1 x[1]
i11 1 x[5]
i12 1 x[4]
i13 2 y[3]
i14 1 x[6]
i15 1 x[3]
o0 bv[0]
c
simplified
  <=
    or
      add
        1
        reverse
          1 x
      >> 3
        2 y
    1
