words_train/words_402_SAT.qaiger.qdimacs
p cnf 49 100
a 1 2 3 4 5 6 7 8 0
e 9 10 11 12 13 14 15 16 17 18 19 20 21 22 23 24 25 26 27 28 29 30 31 32 33 34 35 36 37 38 39 40 41 42 43 44 45 46 47 48 49 0
-8 -7 17 0
8 -17 0
7 -17 0
-17 -6 18 0
17 -18 0
6 -18 0
-3 -2 19 0
3 -19 0
2 -19 0
-19 -5 20 0
19 -20 0
5 -20 0
-20 -18 21 0
20 -21 0
18 -21 0
-21 -4 22 0
21 -22 0
4 -22 0
22 -1 23 0
-22 -23 0
1 -23 0
-3 1 24 0
3 -24 0
-1 -24 0
8 7 25 0
-8 -25 0
-7 -25 0
25 17 26 0
-25 -26 0
-17 -26 0
15 14 27 0
-15 -27 0
-14 -27 0
-27 13 28 0
27 -28 0
-13 -28 0
-28 26 29 0
28 -29 0
-26 -29 0
17 6 30 0
-17 -30 0
-6 -30 0
30 18 31 0
-30 -31 0
-18 -31 0
31 -29 32 0
-31 -32 0
29 -32 0
32 24 33 0
-32 -33 0
-24 -33 0
-33 23 34 0
33 -34 0
-23 -34 0
29 -21 35 0
-29 -35 0
21 -35 0
5 2 36 0
-5 -36 0
-2 -36 0
-36 3 37 0
36 -37 0
-3 -37 0
-37 4 38 0
37 -38 0
-4 -38 0
-38 18 39 0
38 -39 0
-18 -39 0
39 1 40 0
-39 -40 0
-1 -40 0
-40 35 41 0
40 -41 0
-35 -41 0
-30 -1 42 0
30 -42 0
1 -42 0
-42 -37 43 0
42 -43 0
37 -43 0
-43 -29 44 0
43 -44 0
29 -44 0
44 24 45 0
-44 -45 0
-24 -45 0
45 4 46 0
-45 -46 0
-4 -46 0
46 41 47 0
-46 -47 0
-41 -47 0
-47 34 48 0
47 -48 0
-34 -48 0
48 16 49 0
-48 -49 0
-16 -49 0
-49 0
